(set-logic QF_S)
(declare-fun var0 () String)
(assert (RegexIn var0 (RegexUnion (RegexPlus (Str2Reg "0")) (RegexPlus (Str2Reg "1")))))
(assert (not (RegexIn var0 (RegexUnion (RegexStar (Str2Reg "000")) (RegexStar (Str2Reg "11"))))))
(check-sat)